10	5
0	5	3	2	1	4	10
1	3	5	9	6
2	1	8
3	2	11	9
4	3	8	6	7
5	2	7	11
6	1	11
7	1	11
8	1	11
9	1	11
10	1	11
11	0
0	0	0	0	0	0	0
1	3	0	0	0	4	0
2	2	2	2	5	2	3
3	6	5	2	1	3	5
4	10	0	3	5	1	0
5	8	3	1	0	1	0
6	3	5	5	4	1	2
7	6	0	0	5	3	0
8	5	3	2	5	5	0
9	2	5	3	1	5	1
10	9	2	5	1	4	3
11	0	0	0	0	0	0
10	10	11	12	7
